#p HF/6-31G

chk calc

0 1
O        0.049680185     -0.183422616     -3.036487092
H        0.049680185      0.575914384     -2.440444092
H        0.049680185     -0.655388376     -2.666016686

