#p HF/6-31G

chk calc

0 1
O        0.049680185      0.288543143     -3.406957499
H        0.049680185      1.047880143     -2.810914499
H        0.049680185     -1.127354135     -2.295546279


