#p HF/6-31G

chk calc

0 1
O        0.049680185     -0.222753096     -3.005614558
H        0.049680185      0.536583904     -2.409571558
H        0.049680185     -0.616057896     -2.696889220

