#p HF/6-31G

chk calc

0 1
O        0.049680185      0.327873623     -3.437830032
H        0.049680185      1.087210623     -2.841787032
H        0.049680185     -1.166684615     -2.264673745

