#p HF/6-31G

chk calc

0 1
O        0.049680185      0.209882183     -3.345212431
H        0.049680185      0.969219183     -2.749169431
H        0.049680185     -1.048693175     -2.357291347


