#p HF/6-31G

chk calc

0 1
O        0.049680185      0.131221223     -3.283467363
H        0.049680185      0.890558223     -2.687424363
H        0.049680185     -0.970032215     -2.419036415

