#p HF/6-31G

chk calc

0 1
O        0.049680185     -0.065431177     -3.129104694
H        0.049680185      0.693905823     -2.533061694
H        0.049680185     -0.773379816     -2.573399084

