#p HF/6-31G

chk calc

0 1
O        0.049680185      0.249212663     -3.376084965
H        0.049680185      1.008549663     -2.780041965
H        0.049680185     -1.088023655     -2.326418813

