#p HF/6-31G

chk calc

0 1
O        0.049680185     -0.039736996     -3.149273389
H       -0.009538693     -0.099500259     -2.187617830
H        0.108899063      0.020026267     -2.187617830


