#p HF/6-31G

chk calc

0 1
O        0.049680185     -0.039736996     -3.149273389
H       -0.588803762     -0.684090379     -2.819111451
H        0.688164132      0.604616387     -2.819111451

