#p HF/6-31G

chk calc

0 1
O        0.049680185     -0.039736996     -3.149273389
H       -0.627194687     -0.722834223     -3.065139429
H        0.726555058      0.643360231     -3.065139429

