#p HF/6-31G

chk calc

0 1
O        0.049680185     -0.039736996     -3.149273389
H       -0.182708966     -0.274262448     -2.242160920
H        0.282069337      0.194788456     -2.242160919


