#p HF/6-31G

chk calc

0 1
O        0.049680185     -0.039736996     -3.149273389
H       -0.506901210     -0.601434916     -2.595583463
H        0.606261581      0.521960924     -2.595583463


