#p HF/6-31G

chk calc

0 1
O        0.049680185     -0.039736996     -3.149273389
H       -0.068306879     -0.158808688     -2.198609977
H        0.167667250      0.079334696     -2.198609977


