#p HF/6-31G

chk calc

0 1
O        0.049680185     -0.039736996     -3.149273389
H       -0.126177113     -0.217210910     -2.216837247
H        0.225537483      0.137736918     -2.216837247



