#p HF/6-31G

chk calc

0 1
O        0.049680185     -0.039736996     -3.149273389
H       -0.290050027     -0.382590270     -2.313274015
H        0.389410397      0.303116278     -2.313274015

