#p HF/6-31G

chk calc

0 1
O        0.049680185     -0.039736996     -3.149273389
H       -0.387068557     -0.480500669     -2.409788529
H        0.486428927      0.401026676     -2.409788528

