#p HF/6-31G

chk calc

0 1
O        0.049680185     -0.039736996     -3.149273389
H        0.049680185     -0.039736996     -2.183944462
H        0.049680185     -0.039736996     -2.183944462


