%chk=hcoh_MO.chk
%nproc=8
%mem=1000MW
#p HF/6-31G guess=read scf=(xqc,maxcon=128,maxcyc=512,conver=8) freq=noraman IOp(7/8=20000) IOp(1/10=10) IOp(1/18=10) IOp(2/15=3) IOp(2/12=1)

frequency calculation: 1 0 0 0 0

0 1
O 	 0	   0.090322130568	  -0.463790398908	   0.114373891097
C 	 0	  -0.022062916437	   0.521417623552	   0.807995877788
H 	 0	  -0.082953176458	   0.453908473571	   1.885711641534
H 	 0	  -0.066755510233	   1.514490506224	   0.381906807964


